(declare-const a Real)
(declare-const b Real)
(declare-const c Real)
(assert (= (+ a b c) 3))
(assert (> a 0))
(assert (> b 0))
(assert (> c 0))
(assert (not (<= (+ 1024 (* -1537 (pow (* 768 (pow (+ (pow a 2) (pow b 2) (* a b)) (/ 1 2)) (pow (+ (pow a 2) (pow c 2) (* a c)) 384) (pow (+ (pow b 2) (pow c 2) (* b c)) 384)) (pow 1537 -1))) (* 10 (pow (+ a b c) 4))) 0)))
(check-sat)
(get-model)
(exit)